c read Graph
c width = 307
c time = 162 ms
c width = 22
c time = 399 ms
c width = 21
c time = 471 ms
c width = 20
c time = 1353 ms
c width = 19
c time = 2946 ms
c width = 19
c time = 4970 ms
s td 261 20 320
b 1 1 2 21
b 2 2 3 21 22
b 3 18 19 39 40
b 4 3 21 22 41
b 5 18 39 40 60
b 6 261 281 282 302
b 7 280 299 300 319
b 8 261 282 302 303
b 9 280 299 318 319
b 10 3 4 5 24
b 11 3 5 23 24 42 61
b 12 5 23 24 42 44 61 63
b 13 5 24 42 44 61 63 82
b 14 5 24 44 61 63 82 101
b 15 5 24 26 44 45 63 82 101
b 16 5 26 44 45 63 65 82 84 101
b 17 5 26 45 63 65 82 84 101 103
b 18 63 82 83 84 103
b 19 5 26 45 65 82 84 101 103 122
b 20 82 101 102 103 122
b 21 5 26 45 47 65 66 84 101 103 122
b 22 26 45 46 47 66
b 23 5 26 47 65 66 84 87 101 103 107 122 126 143 145 164
b 24 5 9 26 30 47 51 66 70 87 89 101 107 108 122 126 143 145 164
b 25 5 9 26 30 47 51 66 68 70 87 89 108
b 26 68 87 88 89 108
b 27 5 9 26 30 47 49 51 68 70 89
b 28 30 49 50 51 70
b 29 49 68 69 70 89
b 30 5 9 26 28 30 47 49 68
b 31 9 28 29 30 49
b 32 28 47 48 49 68
b 33 5 7 9 26 28 47
b 34 7 8 9 28
b 35 7 26 27 28 47
b 36 5 6 7 26
b 37 47 66 67 68 87
b 38 9 30 51 70 89 101 107 108 122 126 129 143 145 148 164 167 185 186
b 39 9 30 51 70 89 101 108 110 122 129 143 148 164 167 185 186
b 40 89 108 109 110 129
b 41 9 30 51 70 89 101 110 122 129 143 148 164 167 181 185 186 202 205 223 224
b 42 9 30 51 70 89 110 129 148 167 181 186 202 205 223 224 226 247 268 289 308
b 43 9 30 51 70 89 110 129 148 167 186 202 205 207 223 224 226 247 268 289 308
b 44 186 205 206 207 226
b 45 9 30 51 70 89 110 129 148 167 186 188 207 226 247 268 289 308
b 46 167 186 187 188 207
b 47 9 30 51 70 89 110 129 148 167 169 188 207 226 247 268 289 308
b 48 148 167 168 169 188
b 49 181 202 205 223 224 226 247 266 268 285 289 304 308
b 50 181 202 205 223 224 226 245 247 266 285 304
b 51 205 224 225 226 245
b 52 181 202 223 224 245 264 266 285 304
b 53 245 264 265 266 285
b 54 181 202 223 224 243 245 264 285 304
b 55 181 202 223 243 261 262 264 285 304
b 56 243 261 262 264 283 285 304
b 57 261 262 283 303 304
b 58 261 262 282 283 303
b 59 264 283 284 285 304
b 60 243 262 263 264 283
b 61 181 202 223 242 243 261 262
b 62 181 202 221 223 242 261
b 63 181 201 202 221
b 64 202 221 222 223 242
b 65 221 241 242 261
b 66 224 243 244 245 264
b 67 226 245 246 247 266
b 68 247 266 268 285 287 289 304 308
b 69 266 285 287 304 306 308
b 70 266 285 286 287 306
b 71 287 306 307 308
b 72 285 304 305 306
b 73 247 266 267 268 287
b 74 268 287 288 289 308
b 75 101 122 143 164 181 183 185 202 205 223 224
b 76 164 183 185 202 204 205 223 224
b 77 164 183 184 185 204
b 78 183 202 203 204 223
b 79 101 122 143 162 164 181 183 202
b 80 143 162 163 164 183
b 81 162 181 182 183 202
b 82 101 122 141 143 162 181
b 83 122 141 142 143 162
b 84 101 121 122 141
b 85 141 161 162 181
b 86 107 108 126 129 145 147 148 164 167 185 186
b 87 107 108 126 128 129 147 148
b 88 107 126 127 128 147
b 89 126 145 147 164 166 167 185 186
b 90 145 164 165 166 185
b 91 126 145 146 147 166
b 92 65 66 84 87 103 105 107 122 126 143 145 164
b 93 84 103 105 122 124 126 143 145 164
b 94 105 124 125 126 145
b 95 103 122 123 124 143
b 96 124 143 144 145 164
b 97 84 103 104 105 124
b 98 65 66 84 86 87 105 107 126
b 99 65 84 85 86 105
b 100 86 105 106 107 126
b 101 44 63 64 65 84
b 102 5 24 25 26 45
b 103 61 81 82 101
b 104 42 61 62 63 82
b 105 23 42 43 44 63
b 106 3 23 41 42 61
b 107 3 22 23 41 42
b 108 150 169 170 171 190
b 109 188 207 208 209 228
b 110 169 188 189 190 209
b 111 190 209 210 211 230
b 112 211 230 231 232 251
b 113 230 249 250 251 270
b 114 152 171 173 190 192 194 211 213 232
b 115 9 30 51 70 89 110 129 148 169 188 207 226 228 247 268 289 308
b 116 9 30 51 70 89 110 129 148 150 169 188 207 228 247 268 289 308
b 117 9 30 51 70 89 110 129 131 150 169 188 207 228 247 268 289 308
b 118 9 30 51 70 89 110 131 150 169 188 207 209 228 247 268 289 308
b 119 209 228 230 247 249 251 268 270 289
b 120 9 30 51 70 89 110 131 150 169 188 190 209 228 247 268 289 308
b 121 190 209 211 228 230 232 247 251 268 270 289
b 122 9 30 51 70 89 110 131 150 169 171 190 209 228 247 268 289 308
b 123 9 30 51 70 89 110 131 150 152 171 190 209 228 247 268 289 308
b 124 9 30 51 70 89 110 131 152 171 173 190 194 211 213 232 251 270 289 308
b 125 9 30 51 70 89 110 131 152 171 190 209 211 228 232 247 251 268 270 289 308
b 126 9 30 51 70 89 110 131 152 171 190 211 228 232 247 251 268 270 289 308
b 127 207 226 227 228 247
b 128 9 30 51 70 72 89 93 110 112 131 152 173 194 213 232 251 270 289 308
b 129 9 30 51 72 89 93 110 112 131 152 173 194 213 232 251 270 289 308
b 130 51 70 72 89 91 93 110 112 131
b 131 70 89 90 91 110
b 132 72 91 92 93 112
b 133 51 70 71 72 91
b 134 91 110 111 112 131
b 135 9 30 51 72 93 112 114 131 135 152 156 173 175 194 213 232 251 270 289 308
b 136 9 30 51 72 93 114 135 156 175 177 179 194 198 200 213 232 251 270 289 308
b 137 156 175 177 179 194 198 200 213 232 251 253 270 274 289 293 308 312
b 138 232 251 253 270 272 274 289 293 308 312
b 139 232 251 252 253 272
b 140 253 272 273 274 293
b 141 251 270 272 289 291 293 308 312
b 142 272 291 292 293 312
b 143 270 289 291 308 310 312
b 144 270 289 290 291 310
b 145 289 308 309 310
b 146 291 310 311 312
b 147 251 270 271 272 291
b 148 156 175 177 179 194 198 200 213 217 232 236 253 255 274 293 312
b 149 179 198 200 217 236 255 274 293 295 312 316
b 150 274 293 295 312 314 316
b 151 293 312 313 314
b 152 274 293 294 295 314
b 153 295 314 315 316
b 154 179 198 200 217 219 236 255 274 295 316
b 155 198 200 217 219 236 255 274 276 295 316
b 156 198 200 217 219 236 255 257 276 295 316
b 157 198 200 217 219 236 238 257 276 295 316
b 158 217 236 237 238 257
b 159 198 217 218 219 238
b 160 200 219 238 240 257 276 295 316
b 161 219 238 240 257 276 295 297 316
b 162 219 238 240 257 259 276 297 316
b 163 219 238 239 240 259
b 164 238 240 257 259 276 278 297 316
b 165 238 257 258 259 278
b 166 257 276 277 278 297
b 167 240 259 278 297 316 318
b 168 297 316 317 318
b 169 240 259 278 280 297 318
b 170 240 259 260 280
b 171 259 278 280 297 298 318
b 172 259 278 279 280 298 318
b 173 279 280 298 299 318
b 174 276 295 296 297 316
b 175 200 219 220 240
b 176 236 255 256 257 276
b 177 255 274 275 276 295
b 178 179 198 199 200 219
b 179 156 175 177 194 198 213 215 217 232 236 253 255 274
b 180 194 213 215 232 234 236 253 255 274
b 181 194 213 214 215 234
b 182 234 253 254 255 274
b 183 213 232 233 234 253
b 184 215 234 235 236 255
b 185 156 175 177 194 196 198 215 217 236
b 186 175 194 195 196 215
b 187 196 215 216 217 236
b 188 156 175 176 177 196
b 189 177 196 197 198 217
b 190 9 13 30 34 51 55 72 74 93 114 135 156 177 179 198 200
b 191 9 13 30 34 51 53 55 72 74 93
b 192 53 72 73 74 93
b 193 34 53 54 55 74
b 194 9 13 30 32 34 51 53 72
b 195 13 32 33 34 53
b 196 9 11 13 30 32 51
b 197 9 10 11 30
b 198 11 30 31 32 51
b 199 11 12 13 32
b 200 32 51 52 53 72
b 201 13 34 55 74 93 99 114 118 120 135 137 156 177 179 198 200
b 202 99 118 120 137 156 158 177 179 198 200
b 203 158 177 178 179 198
b 204 137 156 157 158 177
b 205 99 118 120 137 139 158 179 200
b 206 120 139 158 160 179 200
b 207 139 158 159 160 179
b 208 160 179 180 200
b 209 120 139 140 160
b 210 99 118 119 120 139
b 211 118 137 138 139 158
b 212 13 34 55 74 76 93 97 99 114 118 120 135 137 156
b 213 55 74 76 93 97 114 116 118 135 137 156
b 214 116 135 136 137 156
b 215 97 116 117 118 137
b 216 55 74 76 93 95 97 114 116 135
b 217 74 93 94 95 114
b 218 76 95 96 97 116
b 219 55 74 75 76 95
b 220 95 114 115 116 135
b 221 13 17 34 36 55 76 97 99 118 120
b 222 13 15 17 34 36 55
b 223 15 34 35 36 55
b 224 13 14 15 34
b 225 15 16 17 36
b 226 17 36 55 76 78 97 99 118 120
b 227 17 36 55 57 76 78 97 99 120
b 228 57 76 77 78 97
b 229 17 36 57 78 80 99 120
b 230 80 99 100 120
b 231 17 36 57 59 78 80 99
b 232 59 78 79 80 99
b 233 17 36 38 57 59 78 80
b 234 38 57 58 59 78
b 235 17 36 37 38 57
b 236 17 38 59 60 80
b 237 17 18 38 59 60
b 238 18 38 39 59 60
b 239 36 55 56 57 76
b 240 78 97 98 99 118
b 241 93 112 114 131 135 152 154 156 173 175 194
b 242 154 173 174 175 194
b 243 135 154 155 156 175
b 244 93 112 114 131 133 135 152 154 173
b 245 93 112 113 114 133
b 246 114 133 134 135 154
b 247 133 152 153 154 173
b 248 112 131 132 133 152
b 249 131 150 151 152 171
b 250 192 211 212 213 232
b 251 152 171 172 173 192
b 252 173 192 193 194 213
b 253 171 190 191 192 211
b 254 228 247 248 249 268
b 255 249 268 269 270 289
b 256 209 228 229 230 249
b 257 110 129 130 131 150
b 258 129 148 149 150 169
b 259 300 319 320
b 260 281 301 302
b 261 19 20 40
1 2
2 4
3 261
3 5
4 107
5 238
6 260
6 8
7 259
7 9
8 58
9 173
10 11
11 106
11 12
12 105
12 13
13 104
13 14
14 103
14 15
15 102
15 16
16 101
16 17
17 19
17 18
19 21
19 20
21 23
21 22
23 92
23 24
24 38
24 25
25 26
25 27
25 37
27 28
27 29
27 30
30 31
30 32
30 33
33 36
33 34
33 35
38 86
38 39
39 41
39 40
41 75
41 42
42 49
42 43
43 44
43 45
45 47
45 46
47 115
47 48
49 68
49 50
50 67
50 52
50 51
52 53
52 54
54 66
54 55
55 61
55 56
56 59
56 60
56 57
57 58
61 62
62 63
62 65
62 64
68 73
68 74
68 69
69 72
69 71
69 70
75 79
75 76
76 78
76 77
79 81
79 82
79 80
82 85
82 83
82 84
86 89
86 87
87 88
89 90
89 91
92 93
92 98
93 95
93 97
93 96
93 94
98 99
98 100
106 107
108 122
109 118
110 120
111 121
112 121
113 119
114 251
114 252
114 253
114 250
114 124
115 127
115 116
116 258
116 117
117 257
117 118
118 120
119 254
119 255
119 256
119 121
120 122
121 125
122 123
123 249
123 125
124 128
124 126
125 126
128 135
128 130
128 129
130 132
130 133
130 134
130 131
135 241
135 136
136 137
136 190
137 138
137 148
138 140
138 139
138 141
141 142
141 147
141 143
143 145
143 146
143 144
148 149
148 179
149 150
149 154
150 151
150 153
150 152
154 178
154 155
155 177
155 156
156 176
156 157
157 159
157 158
157 160
160 175
160 161
161 174
161 162
162 163
162 164
164 165
164 166
164 167
167 168
167 169
169 170
169 171
171 172
172 173
179 185
179 180
180 181
180 184
180 182
180 183
185 188
185 186
185 189
185 187
190 191
190 201
191 193
191 192
191 194
194 195
194 200
194 196
196 197
196 199
196 198
201 202
201 212
202 204
202 203
202 205
205 210
205 211
205 206
206 209
206 208
206 207
212 221
212 213
213 215
213 214
213 216
216 219
216 217
216 218
216 220
221 222
221 226
222 224
222 225
222 223
226 240
226 227
227 239
227 228
227 229
229 230
229 231
231 232
231 233
233 236
233 235
233 234
236 237
237 238
241 243
241 244
241 242
244 245
244 246
244 247
244 248
